unsat
(error "line 731 column 17: model is not available")
(error "line 732 column 17: model is not available")
(error "line 733 column 18: model is not available")
(error "line 734 column 18: model is not available")
(error "line 735 column 18: model is not available")
(error "line 736 column 18: model is not available")
(error "line 737 column 18: model is not available")
(error "line 738 column 18: model is not available")
(error "line 739 column 18: model is not available")
(error "line 740 column 18: model is not available")
(error "line 741 column 18: model is not available")
(error "line 742 column 18: model is not available")
(error "line 743 column 17: model is not available")
(error "line 744 column 18: model is not available")
(error "line 745 column 18: model is not available")
(error "line 746 column 18: model is not available")
(error "line 747 column 18: model is not available")
(error "line 748 column 18: model is not available")
(error "line 749 column 18: model is not available")
(error "line 750 column 18: model is not available")
(error "line 751 column 18: model is not available")
(error "line 752 column 18: model is not available")
(error "line 753 column 18: model is not available")
(error "line 754 column 17: model is not available")
(error "line 755 column 18: model is not available")
(error "line 756 column 18: model is not available")
(error "line 757 column 18: model is not available")
(error "line 758 column 18: model is not available")
(error "line 759 column 18: model is not available")
(error "line 760 column 18: model is not available")
(error "line 761 column 18: model is not available")
(error "line 762 column 18: model is not available")
(error "line 763 column 18: model is not available")
(error "line 764 column 18: model is not available")
(error "line 765 column 17: model is not available")
(error "line 766 column 18: model is not available")
(error "line 767 column 18: model is not available")
(error "line 768 column 18: model is not available")
(error "line 769 column 18: model is not available")
(error "line 770 column 18: model is not available")
(error "line 771 column 18: model is not available")
(error "line 772 column 18: model is not available")
(error "line 773 column 18: model is not available")
(error "line 774 column 18: model is not available")
(error "line 775 column 18: model is not available")
(error "line 776 column 17: model is not available")
(error "line 777 column 18: model is not available")
(error "line 778 column 18: model is not available")
(error "line 779 column 18: model is not available")
(error "line 780 column 18: model is not available")
(error "line 781 column 18: model is not available")
(error "line 782 column 18: model is not available")
(error "line 783 column 18: model is not available")
(error "line 784 column 18: model is not available")
(error "line 785 column 18: model is not available")
(error "line 786 column 18: model is not available")
(error "line 787 column 17: model is not available")
(error "line 788 column 18: model is not available")
(error "line 789 column 18: model is not available")
(error "line 790 column 18: model is not available")
(error "line 791 column 17: model is not available")
(error "line 792 column 17: model is not available")
(error "line 793 column 17: model is not available")
(error "line 794 column 38: model is not available")
(error "line 795 column 45: model is not available")
(error "line 796 column 38: model is not available")
(error "line 797 column 45: model is not available")
(error "line 798 column 46: model is not available")
(error "line 799 column 53: model is not available")
(error "line 800 column 40: model is not available")
(error "line 801 column 47: model is not available")
(error "line 802 column 38: model is not available")
(error "line 803 column 45: model is not available")
(error "line 804 column 38: model is not available")
(error "line 805 column 45: model is not available")
(error "line 806 column 41: model is not available")
(error "line 807 column 48: model is not available")
(error "line 808 column 41: model is not available")
(error "line 809 column 48: model is not available")
(error "line 810 column 37: model is not available")
(error "line 811 column 44: model is not available")
(error "line 812 column 42: model is not available")
(error "line 813 column 42: model is not available")
(error "line 814 column 38: model is not available")
(error "line 815 column 38: model is not available")
(error "line 816 column 38: model is not available")
(error "line 817 column 41: model is not available")
(error "line 818 column 48: model is not available")
(error "line 819 column 41: model is not available")
(error "line 820 column 48: model is not available")
(error "line 821 column 41: model is not available")
(error "line 822 column 48: model is not available")
(error "line 823 column 45: model is not available")
(error "line 824 column 45: model is not available")
(error "line 825 column 45: model is not available")
(error "line 826 column 45: model is not available")
(error "line 827 column 53: model is not available")
(error "line 828 column 34: model is not available")
(error "line 829 column 34: model is not available")
(error "line 830 column 34: model is not available")
(error "line 831 column 35: model is not available")
(error "line 832 column 37: model is not available")
(error "line 833 column 44: model is not available")
(error "line 834 column 37: model is not available")
(error "line 835 column 37: model is not available")
(error "line 836 column 37: model is not available")
(error "line 837 column 37: model is not available")
(error "line 838 column 44: model is not available")
(error "line 839 column 37: model is not available")
(error "line 840 column 44: model is not available")
(error "line 841 column 42: model is not available")
(error "line 842 column 34: model is not available")
(error "line 843 column 34: model is not available")
(error "line 844 column 34: model is not available")
(error "line 845 column 34: model is not available")
(error "line 846 column 34: model is not available")
(error "line 847 column 34: model is not available")
(error "line 848 column 34: model is not available")
(error "line 849 column 36: model is not available")
(error "line 850 column 38: model is not available")
(error "line 851 column 38: model is not available")
(error "line 852 column 38: model is not available")
(error "line 853 column 38: model is not available")
(error "line 854 column 38: model is not available")
(error "line 855 column 36: model is not available")
(error "line 856 column 29: model is not available")
(error "line 857 column 31: model is not available")
(error "line 858 column 38: model is not available")
(error "line 859 column 31: model is not available")
(error "line 860 column 38: model is not available")
(error "line 861 column 18: model is not available")
(error "line 862 column 20: model is not available")
(error "line 863 column 27: model is not available")
(error "line 864 column 20: model is not available")
(error "line 865 column 27: model is not available")
(error "line 866 column 20: model is not available")
(error "line 867 column 27: model is not available")
(error "line 868 column 20: model is not available")
(error "line 869 column 20: model is not available")
(error "line 870 column 20: model is not available")
(error "line 871 column 20: model is not available")
(error "line 872 column 27: model is not available")
(error "line 873 column 20: model is not available")
(error "line 874 column 27: model is not available")
(error "line 875 column 51: model is not available")
(error "line 876 column 50: model is not available")
(error "line 877 column 50: model is not available")
(error "line 878 column 50: model is not available")
(error "line 879 column 50: model is not available")
(error "line 880 column 50: model is not available")
(error "line 881 column 50: model is not available")
(error "line 882 column 50: model is not available")
(error "line 883 column 50: model is not available")
(error "line 884 column 55: model is not available")
(error "line 885 column 55: model is not available")
(error "line 886 column 36: model is not available")
(error "line 887 column 46: model is not available")
(error "line 888 column 46: model is not available")
(error "line 889 column 54: model is not available")
(error "line 890 column 54: model is not available")
(error "line 891 column 54: model is not available")
(error "line 892 column 40: model is not available")
(error "line 893 column 40: model is not available")
(error "line 894 column 41: model is not available")
(error "line 895 column 41: model is not available")
(error "line 896 column 50: model is not available")
(error "line 897 column 50: model is not available")
(error "line 898 column 43: model is not available")
(error "line 899 column 43: model is not available")
(error "line 900 column 24: model is not available")
(error "line 901 column 31: model is not available")
(error "line 902 column 24: model is not available")
(error "line 903 column 31: model is not available")
(error "line 904 column 30: model is not available")
(error "line 905 column 36: model is not available")
(error "line 906 column 36: model is not available")
(error "line 907 column 36: model is not available")
(error "line 908 column 36: model is not available")
(error "line 909 column 30: model is not available")
(error "line 911 column 10: model is not available")
(:added-eqs                      36
 :arith-bound-propagations-cheap 1
 :arith-bound-propagations-lp    9
 :arith-lower                    19
 :arith-make-feasible            2
 :arith-max-columns              51
 :arith-max-rows                 31
 :arith-propagations             1
 :arith-upper                    11
 :binary-propagations            1136
 :bv-bit2core                    411
 :bv-diseqs                      1
 :bv-dynamic-diseqs              4
 :conflicts                      35
 :decisions                      346
 :del-clause                     452
 :eliminated-applications        21
 :eliminated-vars                12
 :max-memory                     3.70
 :memory                         3.01
 :mk-bool-var                    746
 :mk-clause                      563
 :num-allocs                     663311
 :num-checks                     1
 :propagations                   1465
 :rlimit-count                   20151
 :time                           0.01
 :total-time                     0.01)

real	0m0.018s
user	0m0.010s
sys	0m0.009s
State: RE Run_time: 0.020633459091186523